1682030
1,82,45,34,52,29,16,107,94,46,81,2,59,84,51,25,83,3,63,20,44,85,61,95,32,6,30,103,92,74,48,80,17,53,100,102,54,58,104,97,89,91,11,49,47,71,99,105,76,73,19,62,96,93,13,87,50,18,7,88,65,60,106,55,40,68,33,108,78,42,12,36,28,8,39,31,72,38,41,26,37,14,70,69,27,86,75,57,22,64,10,66,77,9,15,23,24,109,90,21,56,4,67,79,43,35,101,98,5,1